Route #1: 63 23 56 41 43 42 64 22 1 73 33 6
Route #2: 75 30 74 21 61 28 62 2 68
Route #3: 45 29 5 37 20 70 60 71 69 36 47 48 4
Route #4: 67 34 52 27 15 57 13 54 19 8 46
Route #5: 7 35 53 14 59 11 66 65 38
Route #6: 17 40 3 44 32 9 39 72 12
Route #7: 26 58 10 31 55 25 50 18 24 49 16 51
Cost 689
Time 0.115221
